(set-info :smt-lib-version 2.6)
(set-logic QF_S)
(set-info :source |
Generated by: Murphy Berzish, Mitja Kulczynski, Federico Mora, Florin Manea, Joel Day, Dirk Nowotka, Vijay Ganesh, Zhengyang Lu
Generated on: 2020-10-01
Description: Translated from a collection of real-world regex queries, AutomataArk, collected by Loris D’Antoni and Fang Wang: https://github.com/lorisdanto/automatark
Application: Evaluate solvers on real-world regex queries
Target solver: Z3str3RE, CVC4, OSTRICH, Z3seq, Z3str3, Z3-Trau
Publications: Berzish, M., Kulczynski, M., Mora, F., Manea, F., Day, J. D., Nowotka, D., & Ganesh, V. (2021, July). An SMT solver for regular expressions and linear arithmetic over string length. In CAV 2021.
|)
(set-info :license "https://creativecommons.org/licenses/by/4.0/")
(set-info :category "industrial")
(set-info :status unsat)

(declare-const X String)
(assert (not (str.in_re X (re.++ (str.to_re "/filename=") (re.opt (re.union (str.to_re "\u{22}") (str.to_re "'"))) (re.* (re.comp (str.to_re "\u{a}"))) (str.to_re ".pif") (re.union (str.to_re "\u{22}") (str.to_re "'") (str.to_re " ") (str.to_re "\u{9}") (str.to_re "\u{a}") (str.to_re "\u{c}") (str.to_re "\u{d}")) (str.to_re "/si\u{a}")))))
(assert (str.in_re X (re.++ (re.+ re.allchar) (str.to_re ".") (re.union (str.to_re "jpg") (str.to_re "jpeg") (str.to_re "JPG") (str.to_re "JPEG")) (str.to_re "\u{a}"))))
(assert (not (str.in_re X (re.++ (str.to_re "/") (re.union (str.to_re "\u{19}\u{0}") (str.to_re "\u{0}\u{5c}")) (str.to_re "\u{0}s\u{0}p\u{0}f\u{0}r\u{0}a\u{0}m\u{0}e\u{0}.\u{0}d\u{0}l\u{0}l\u{0}\u{0}\u{0}/i\u{a}")))))
(assert (not (str.in_re X (re.++ (str.to_re "IP") (re.* re.allchar) (str.to_re "encoder") (re.+ (re.range "0" "9")) (str.to_re "SAHPORT-User-Agent:\u{a}")))))
(assert (str.in_re X (re.++ (re.opt (str.to_re "+")) (re.opt (re.++ ((_ re.loop 1 1) (str.to_re "9")) ((_ re.loop 1 1) (str.to_re "2")))) (re.opt (str.to_re "-")) (re.opt (str.to_re " ")) (re.opt (str.to_re "(")) (re.opt ((_ re.loop 1 1) (str.to_re "0"))) ((_ re.loop 2 4) (re.range "1" "9")) (re.opt (str.to_re ")")) (re.opt (str.to_re "-")) (re.opt (str.to_re " ")) (re.opt (str.to_re "(")) ((_ re.loop 4 7) (re.range "1" "9")) (re.opt (str.to_re ")")) (str.to_re "\u{a}"))))
(check-sat)

(exit)
